benchmarks_CP/INST_49x49/40/inst49x49_40_93.dzn
S=7;
start=[|
25,	-1,	-1,	-1,	-1,	40,	-1,	-1,	-1,	-1,	-1,	-1,	-1,	-1,	-1,	31,	-1,	-1,	-1,	33,	42,	-1,	-1,	20,	-1,	-1,	-1,	13,	-1,	44,	36,	38,	-1,	-1,	-1,	18,	17,	-1,	-1,	48,	-1,	-1,	-1,	43,	-1,	-1,	-1,	-1,	22|
6,	24,	21,	-1,	-1,	4,	-1,	-1,	8,	-1,	-1,	-1,	42,	-1,	29,	-1,	38,	10,	-1,	-1,	-1,	26,	-1,	-1,	-1,	36,	-1,	2,	-1,	46,	16,	-1,	43,	-1,	7,	32,	-1,	-1,	-1,	27,	-1,	-1,	-1,	9,	-1,	-1,	49,	15,	-1|
-1,	14,	-1,	-1,	-1,	-1,	45,	-1,	16,	-1,	-1,	-1,	-1,	-1,	4,	37,	-1,	-1,	32,	-1,	39,	-1,	-1,	-1,	38,	-1,	27,	-1,	-1,	29,	41,	-1,	40,	-1,	-1,	-1,	7,	36,	12,	47,	-1,	-1,	21,	-1,	48,	35,	42,	-1,	-1|
46,	-1,	-1,	-1,	-1,	31,	36,	22,	20,	-1,	-1,	-1,	-1,	-1,	-1,	-1,	-1,	43,	13,	-1,	28,	25,	35,	-1,	29,	-1,	-1,	19,	-1,	-1,	6,	-1,	-1,	49,	-1,	1,	-1,	-1,	-1,	40,	-1,	26,	32,	-1,	5,	34,	14,	18,	-1|
-1,	48,	-1,	12,	8,	-1,	-1,	-1,	-1,	-1,	5,	37,	29,	33,	2,	-1,	7,	3,	-1,	-1,	-1,	-1,	-1,	-1,	-1,	32,	-1,	39,	-1,	-1,	30,	-1,	-1,	-1,	4,	-1,	-1,	43,	-1,	-1,	-1,	13,	-1,	44,	-1,	-1,	-1,	-1,	-1|
-1,	7,	-1,	-1,	-1,	-1,	-1,	-1,	-1,	14,	-1,	-1,	-1,	36,	-1,	-1,	12,	-1,	6,	-1,	-1,	40,	4,	-1,	-1,	30,	45,	48,	-1,	33,	-1,	-1,	-1,	10,	-1,	-1,	-1,	-1,	-1,	-1,	-1,	-1,	-1,	37,	1,	25,	-1,	-1,	29|
-1,	-1,	-1,	35,	17,	5,	-1,	25,	-1,	-1,	10,	-1,	-1,	26,	23,	44,	-1,	49,	48,	-1,	-1,	-1,	-1,	1,	31,	-1,	37,	24,	3,	-1,	-1,	-1,	-1,	34,	-1,	2,	-1,	8,	29,	9,	11,	-1,	-1,	-1,	33,	46,	-1,	16,	4|
24,	-1,	-1,	32,	3,	21,	-1,	15,	-1,	33,	11,	-1,	43,	-1,	-1,	-1,	8,	-1,	46,	-1,	-1,	-1,	45,	39,	-1,	-1,	42,	16,	-1,	-1,	-1,	-1,	12,	35,	-1,	-1,	-1,	30,	-1,	-1,	-1,	25,	-1,	-1,	28,	4,	26,	-1,	-1|
-1,	-1,	31,	23,	-1,	-1,	-1,	36,	44,	-1,	-1,	-1,	-1,	16,	37,	-1,	21,	-1,	19,	-1,	-1,	2,	-1,	-1,	26,	-1,	20,	-1,	-1,	-1,	-1,	-1,	-1,	14,	-1,	-1,	32,	-1,	-1,	-1,	-1,	-1,	29,	7,	-1,	-1,	-1,	-1,	25|
-1,	43,	-1,	47,	44,	-1,	14,	-1,	5,	-1,	20,	24,	-1,	23,	-1,	-1,	-1,	-1,	-1,	-1,	32,	-1,	36,	35,	12,	-1,	-1,	-1,	-1,	1,	31,	46,	-1,	-1,	6,	27,	-1,	3,	-1,	-1,	48,	38,	-1,	-1,	9,	-1,	19,	-1,	10|
-1,	45,	-1,	9,	-1,	-1,	-1,	-1,	-1,	8,	19,	-1,	37,	-1,	25,	28,	-1,	-1,	-1,	-1,	-1,	6,	-1,	-1,	33,	-1,	7,	15,	10,	-1,	-1,	-1,	-1,	4,	-1,	-1,	43,	-1,	22,	5,	-1,	-1,	2,	-1,	-1,	-1,	-1,	-1,	12|
-1,	-1,	39,	29,	-1,	10,	-1,	-1,	42,	9,	35,	-1,	-1,	17,	-1,	-1,	-1,	-1,	-1,	-1,	2,	-1,	-1,	-1,	-1,	43,	3,	-1,	18,	34,	27,	-1,	41,	-1,	15,	-1,	-1,	28,	-1,	-1,	-1,	-1,	22,	-1,	30,	33,	-1,	1,	-1|
-1,	25,	-1,	-1,	-1,	27,	34,	-1,	32,	-1,	-1,	22,	-1,	-1,	-1,	-1,	-1,	-1,	42,	-1,	-1,	-1,	-1,	47,	5,	11,	-1,	-1,	-1,	-1,	2,	-1,	-1,	-1,	45,	-1,	-1,	-1,	-1,	31,	-1,	-1,	-1,	-1,	23,	-1,	-1,	-1,	-1|
16,	15,	2,	-1,	-1,	35,	-1,	-1,	3,	-1,	12,	-1,	-1,	39,	-1,	-1,	-1,	-1,	22,	-1,	-1,	28,	48,	-1,	-1,	-1,	-1,	18,	38,	-1,	-1,	47,	-1,	30,	9,	45,	26,	-1,	-1,	49,	-1,	1,	-1,	-1,	42,	-1,	-1,	-1,	-1|
-1,	47,	14,	-1,	-1,	-1,	-1,	49,	15,	-1,	-1,	-1,	32,	41,	-1,	-1,	48,	-1,	30,	-1,	-1,	-1,	-1,	-1,	3,	-1,	38,	40,	-1,	-1,	-1,	13,	35,	27,	-1,	23,	-1,	-1,	11,	37,	-1,	5,	-1,	25,	46,	16,	6,	-1,	20|
-1,	12,	36,	-1,	-1,	-1,	-1,	34,	-1,	-1,	22,	-1,	-1,	-1,	-1,	-1,	-1,	33,	-1,	-1,	-1,	-1,	-1,	30,	-1,	-1,	-1,	37,	17,	23,	-1,	-1,	-1,	-1,	-1,	16,	-1,	48,	10,	24,	26,	-1,	28,	-1,	2,	-1,	-1,	-1,	-1|
30,	22,	-1,	-1,	1,	33,	13,	39,	-1,	48,	-1,	-1,	-1,	-1,	-1,	-1,	28,	-1,	-1,	8,	-1,	35,	32,	19,	-1,	16,	-1,	45,	-1,	-1,	20,	-1,	2,	-1,	-1,	15,	29,	-1,	-1,	-1,	27,	21,	-1,	36,	14,	42,	23,	-1,	-1|
48,	34,	-1,	41,	-1,	20,	-1,	-1,	-1,	-1,	4,	-1,	-1,	38,	-1,	-1,	-1,	15,	-1,	1,	7,	21,	-1,	-1,	-1,	27,	-1,	-1,	-1,	30,	32,	-1,	-1,	45,	-1,	-1,	-1,	49,	-1,	13,	-1,	18,	35,	-1,	-1,	10,	-1,	40,	26|
-1,	42,	-1,	-1,	40,	11,	25,	19,	43,	-1,	-1,	-1,	-1,	-1,	20,	-1,	-1,	38,	-1,	2,	-1,	-1,	-1,	12,	-1,	-1,	-1,	-1,	5,	-1,	1,	-1,	10,	-1,	-1,	22,	9,	35,	-1,	-1,	30,	-1,	-1,	-1,	27,	18,	4,	-1,	-1|
-1,	-1,	-1,	-1,	-1,	-1,	35,	-1,	-1,	-1,	37,	30,	33,	44,	40,	10,	4,	27,	-1,	-1,	-1,	-1,	-1,	-1,	-1,	6,	-1,	-1,	8,	-1,	-1,	-1,	-1,	42,	14,	-1,	20,	38,	36,	-1,	-1,	47,	12,	45,	32,	-1,	-1,	-1,	-1|
-1,	27,	15,	16,	-1,	45,	-1,	20,	-1,	26,	-1,	-1,	-1,	46,	22,	-1,	-1,	31,	41,	9,	-1,	47,	-1,	-1,	-1,	-1,	-1,	-1,	-1,	-1,	49,	-1,	-1,	12,	-1,	8,	-1,	17,	-1,	-1,	32,	33,	-1,	-1,	-1,	37,	-1,	-1,	-1|
-1,	-1,	-1,	18,	32,	30,	-1,	47,	34,	13,	42,	-1,	28,	-1,	49,	-1,	-1,	-1,	-1,	41,	31,	8,	39,	38,	-1,	-1,	-1,	22,	33,	19,	48,	-1,	-1,	-1,	-1,	10,	-1,	-1,	5,	-1,	46,	9,	25,	-1,	-1,	-1,	36,	-1,	-1|
17,	-1,	-1,	46,	15,	-1,	43,	-1,	9,	-1,	-1,	-1,	-1,	30,	-1,	-1,	-1,	11,	8,	-1,	-1,	4,	-1,	27,	-1,	-1,	-1,	41,	-1,	-1,	10,	-1,	-1,	-1,	-1,	24,	39,	2,	-1,	22,	-1,	-1,	7,	1,	-1,	-1,	-1,	34,	19|
-1,	40,	-1,	39,	-1,	-1,	-1,	-1,	-1,	-1,	25,	-1,	-1,	-1,	-1,	-1,	-1,	30,	-1,	-1,	-1,	-1,	-1,	29,	32,	46,	10,	31,	26,	-1,	13,	43,	38,	-1,	-1,	44,	49,	21,	-1,	-1,	16,	-1,	-1,	42,	-1,	45,	-1,	-1,	18|
-1,	-1,	29,	-1,	34,	23,	-1,	-1,	-1,	38,	46,	12,	22,	-1,	-1,	-1,	-1,	-1,	-1,	-1,	43,	18,	7,	-1,	20,	-1,	-1,	-1,	-1,	32,	14,	-1,	-1,	-1,	-1,	-1,	-1,	-1,	-1,	-1,	-1,	-1,	-1,	35,	4,	-1,	-1,	48,	-1|
35,	13,	8,	-1,	11,	-1,	-1,	-1,	39,	43,	23,	-1,	-1,	1,	38,	36,	-1,	2,	3,	46,	-1,	16,	44,	6,	30,	45,	-1,	-1,	-1,	-1,	-1,	-1,	-1,	-1,	41,	-1,	-1,	-1,	-1,	32,	-1,	-1,	-1,	-1,	15,	49,	-1,	10,	-1|
10,	-1,	-1,	-1,	-1,	-1,	41,	-1,	-1,	-1,	-1,	-1,	14,	15,	-1,	-1,	20,	-1,	44,	-1,	6,	-1,	-1,	-1,	21,	-1,	-1,	-1,	-1,	-1,	35,	-1,	22,	-1,	-1,	38,	33,	-1,	18,	-1,	-1,	34,	9,	5,	16,	-1,	-1,	-1,	24|
31,	-1,	-1,	-1,	-1,	26,	-1,	-1,	36,	-1,	-1,	-1,	24,	18,	45,	22,	23,	32,	-1,	-1,	-1,	-1,	-1,	-1,	-1,	-1,	-1,	-1,	-1,	2,	21,	-1,	1,	-1,	-1,	43,	27,	-1,	-1,	-1,	-1,	-1,	17,	12,	-1,	47,	-1,	-1,	-1|
8,	49,	32,	31,	20,	-1,	-1,	-1,	33,	-1,	-1,	-1,	3,	-1,	17,	2,	16,	-1,	40,	-1,	-1,	-1,	34,	41,	7,	38,	5,	14,	48,	-1,	-1,	-1,	-1,	-1,	13,	25,	-1,	-1,	4,	-1,	19,	35,	36,	-1,	26,	-1,	-1,	9,	42|
-1,	-1,	48,	-1,	7,	16,	-1,	13,	-1,	-1,	-1,	4,	-1,	5,	-1,	-1,	6,	-1,	21,	-1,	-1,	-1,	17,	42,	19,	10,	-1,	-1,	-1,	-1,	46,	-1,	-1,	40,	8,	-1,	-1,	-1,	14,	18,	-1,	-1,	-1,	22,	-1,	-1,	11,	-1,	-1|
26,	-1,	-1,	-1,	47,	46,	18,	-1,	-1,	17,	-1,	-1,	-1,	31,	-1,	-1,	34,	-1,	38,	-1,	-1,	-1,	-1,	-1,	-1,	-1,	-1,	-1,	-1,	-1,	29,	-1,	-1,	-1,	12,	48,	-1,	-1,	-1,	-1,	43,	-1,	37,	-1,	-1,	-1,	33,	35,	-1|
-1,	17,	27,	21,	23,	44,	3,	-1,	-1,	-1,	-1,	-1,	49,	25,	-1,	-1,	-1,	-1,	-1,	48,	-1,	-1,	-1,	37,	45,	47,	4,	-1,	-1,	14,	18,	-1,	-1,	-1,	-1,	-1,	16,	41,	32,	11,	29,	-1,	-1,	-1,	12,	15,	-1,	-1,	13|
39,	37,	-1,	-1,	-1,	-1,	-1,	-1,	-1,	-1,	-1,	-1,	-1,	-1,	19,	47,	-1,	-1,	43,	-1,	-1,	-1,	-1,	-1,	-1,	3,	-1,	-1,	-1,	27,	38,	-1,	-1,	44,	2,	-1,	-1,	26,	20,	-1,	12,	-1,	10,	-1,	-1,	-1,	-1,	49,	-1|
42,	-1,	-1,	15,	-1,	-1,	30,	12,	26,	-1,	14,	-1,	34,	32,	-1,	-1,	-1,	-1,	36,	31,	27,	20,	-1,	21,	6,	-1,	-1,	-1,	-1,	25,	-1,	-1,	7,	-1,	-1,	-1,	22,	13,	45,	3,	-1,	2,	-1,	40,	24,	-1,	48,	8,	23|
-1,	-1,	-1,	25,	-1,	9,	4,	-1,	-1,	37,	30,	23,	10,	19,	-1,	-1,	13,	14,	-1,	-1,	-1,	44,	24,	8,	-1,	-1,	-1,	43,	-1,	-1,	42,	3,	-1,	36,	-1,	33,	-1,	-1,	38,	15,	-1,	-1,	-1,	31,	17,	-1,	-1,	-1,	-1|
-1,	10,	-1,	19,	-1,	-1,	-1,	42,	37,	5,	-1,	36,	-1,	49,	-1,	-1,	40,	-1,	45,	-1,	29,	-1,	-1,	-1,	-1,	-1,	-1,	-1,	7,	31,	33,	-1,	13,	-1,	44,	-1,	-1,	-1,	-1,	-1,	-1,	16,	-1,	-1,	3,	-1,	20,	2,	-1|
49,	26,	12,	-1,	18,	36,	-1,	1,	-1,	28,	8,	43,	-1,	-1,	-1,	20,	-1,	-1,	2,	-1,	-1,	-1,	-1,	-1,	-1,	-1,	22,	-1,	14,	42,	-1,	45,	37,	-1,	-1,	-1,	13,	-1,	-1,	-1,	-1,	48,	-1,	27,	-1,	-1,	7,	33,	-1|
-1,	2,	3,	-1,	-1,	-1,	-1,	-1,	-1,	-1,	31,	-1,	-1,	-1,	-1,	42,	-1,	-1,	-1,	38,	-1,	34,	-1,	-1,	18,	-1,	-1,	27,	-1,	10,	-1,	40,	-1,	20,	-1,	-1,	-1,	-1,	8,	-1,	-1,	-1,	19,	-1,	-1,	39,	-1,	-1,	-1|
20,	-1,	-1,	-1,	-1,	-1,	31,	-1,	-1,	-1,	44,	-1,	-1,	-1,	-1,	-1,	-1,	-1,	26,	-1,	-1,	-1,	-1,	16,	39,	-1,	-1,	-1,	-1,	3,	-1,	-1,	27,	5,	46,	36,	-1,	-1,	19,	-1,	-1,	-1,	45,	23,	35,	13,	-1,	-1,	-1|
-1,	-1,	-1,	30,	45,	-1,	-1,	-1,	38,	-1,	-1,	40,	-1,	-1,	-1,	-1,	46,	-1,	-1,	-1,	-1,	19,	-1,	4,	-1,	-1,	-1,	-1,	-1,	36,	47,	-1,	-1,	21,	-1,	-1,	14,	-1,	-1,	-1,	24,	-1,	5,	-1,	-1,	-1,	-1,	26,	-1|
-1,	-1,	-1,	40,	37,	-1,	-1,	-1,	13,	6,	-1,	32,	-1,	20,	-1,	-1,	11,	-1,	31,	-1,	17,	45,	-1,	-1,	46,	48,	-1,	8,	-1,	-1,	-1,	-1,	-1,	-1,	-1,	-1,	-1,	-1,	-1,	30,	-1,	42,	-1,	-1,	22,	-1,	-1,	12,	36|
11,	46,	-1,	33,	-1,	-1,	-1,	3,	17,	47,	15,	-1,	-1,	9,	8,	-1,	10,	-1,	-1,	-1,	-1,	-1,	-1,	23,	36,	2,	-1,	-1,	-1,	-1,	-1,	26,	34,	-1,	48,	6,	-1,	1,	-1,	-1,	4,	39,	-1,	38,	-1,	-1,	32,	42,	-1|
-1,	11,	-1,	4,	-1,	-1,	21,	-1,	24,	27,	-1,	6,	-1,	2,	-1,	-1,	29,	25,	37,	-1,	-1,	30,	16,	40,	-1,	-1,	-1,	-1,	-1,	-1,	-1,	-1,	-1,	-1,	-1,	-1,	-1,	34,	33,	-1,	10,	-1,	39,	13,	-1,	-1,	1,	-1,	-1|
18,	20,	22,	1,	24,	-1,	-1,	-1,	-1,	40,	-1,	-1,	-1,	37,	-1,	-1,	35,	-1,	-1,	-1,	8,	-1,	15,	-1,	-1,	-1,	-1,	-1,	42,	7,	-1,	30,	-1,	-1,	-1,	4,	-1,	12,	-1,	41,	6,	-1,	-1,	-1,	-1,	-1,	3,	25,	48|
43,	-1,	-1,	34,	12,	-1,	-1,	-1,	-1,	-1,	17,	-1,	-1,	47,	-1,	-1,	-1,	-1,	-1,	-1,	41,	-1,	27,	36,	-1,	49,	-1,	-1,	-1,	-1,	-1,	-1,	-1,	-1,	-1,	-1,	25,	9,	-1,	-1,	45,	-1,	-1,	33,	18,	-1,	5,	-1,	-1|
-1,	-1,	-1,	2,	33,	39,	-1,	-1,	-1,	-1,	13,	-1,	5,	3,	30,	-1,	9,	6,	-1,	40,	-1,	10,	12,	-1,	-1,	14,	18,	38,	-1,	16,	34,	-1,	-1,	-1,	31,	37,	-1,	-1,	1,	-1,	-1,	27,	42,	11,	-1,	19,	28,	-1,	7|
-1,	-1,	41,	-1,	27,	6,	-1,	48,	-1,	-1,	39,	-1,	-1,	-1,	-1,	24,	-1,	-1,	14,	11,	18,	-1,	-1,	34,	22,	-1,	35,	-1,	23,	-1,	3,	-1,	44,	-1,	43,	-1,	-1,	40,	-1,	-1,	38,	-1,	15,	17,	-1,	-1,	29,	-1,	-1|
-1,	35,	25,	17,	13,	-1,	15,	43,	-1,	-1,	34,	-1,	-1,	-1,	-1,	-1,	-1,	28,	-1,	-1,	4,	-1,	-1,	-1,	-1,	31,	-1,	-1,	-1,	6,	-1,	2,	-1,	-1,	-1,	5,	-1,	39,	-1,	14,	-1,	29,	27,	16,	8,	-1,	30,	-1,	9|
14,	29,	30,	-1,	-1,	47,	-1,	-1,	12,	15,	-1,	7,	-1,	-1,	-1,	-1,	-1,	-1,	-1,	-1,	26,	-1,	-1,	13,	-1,	4,	-1,	-1,	-1,	41,	-1,	-1,	-1,	-1,	22,	-1,	-1,	-1,	-1,	20,	18,	11,	40,	-1,	-1,	-1,	2,	23,	-1|];
