sudoku-ls/benchmarks_LEQ/INST_49x49/40/inst49x49_40_93.txt
7
1
25	-1	37	3	29	-1	39	32	-1	-1	-1	-1	27	12	-1	-1	-1	-1	-1	-1	-1	-1	-1	-1	9	-1	11	-1	1	44	-1	-1	23	-1	-1	-1	17	-1	21	-1	28	-1	26	43	-1	-1	-1	-1	-1
-1	24	21	-1	41	-1	1	-1	8	-1	-1	-1	-1	13	-1	40	38	10	25	-1	45	-1	33	44	47	36	17	2	22	-1	16	-1	-1	-1	7	-1	35	5	37	27	14	3	-1	-1	20	23	-1	15	-1
-1	-1	9	-1	26	-1	45	23	16	-1	-1	-1	46	43	-1	-1	-1	-1	-1	-1	39	22	6	-1	-1	18	-1	34	-1	-1	-1	-1	-1	-1	20	30	7	36	-1	-1	33	10	21	-1	-1	35	42	-1	-1
-1	-1	33	10	38	-1	-1	-1	-1	-1	-1	-1	-1	-1	11	30	41	-1	13	-1	-1	-1	-1	-1	-1	7	12	-1	-1	-1	6	-1	39	-1	-1	-1	15	-1	-1	40	-1	26	-1	47	-1	34	-1	-1	27
-1	-1	-1	12	8	22	-1	9	-1	-1	-1	-1	-1	-1	2	-1	-1	-1	-1	-1	-1	46	21	10	-1	-1	-1	-1	11	35	30	-1	17	-1	-1	20	42	-1	-1	-1	-1	-1	24	44	-1	-1	-1	38	6
-1	7	49	43	-1	-1	-1	44	21	-1	47	-1	38	36	-1	-1	-1	46	-1	35	-1	-1	-1	-1	16	30	45	-1	-1	-1	-1	-1	-1	-1	-1	-1	-1	-1	24	19	39	-1	-1	-1	-1	-1	-1	13	-1
47	-1	-1	35	-1	-1	-1	-1	-1	-1	10	-1	-1	-1	23	44	27	49	48	-1	-1	-1	-1	1	-1	28	-1	-1	-1	13	-1	-1	-1	-1	19	-1	-1	-1	-1	-1	-1	6	-1	41	-1	-1	12	-1	-1
-1	-1	38	-1	3	21	22	-1	-1	33	11	-1	43	-1	10	-1	8	-1	-1	-1	-1	-1	-1	39	-1	-1	-1	16	44	48	-1	23	-1	-1	-1	41	18	30	-1	-1	20	-1	-1	14	-1	-1	26	36	-1
-1	18	-1	-1	-1	41	33	36	-1	45	-1	-1	47	-1	-1	-1	21	-1	-1	30	-1	2	-1	-1	-1	1	-1	-1	-1	11	-1	-1	3	-1	-1	35	32	-1	39	-1	-1	15	-1	-1	-1	40	-1	-1	25
4	43	-1	47	-1	-1	-1	-1	-1	-1	-1	24	-1	-1	-1	-1	39	-1	-1	-1	-1	-1	-1	-1	-1	22	30	-1	-1	-1	31	46	42	28	-1	27	21	-1	-1	-1	-1	38	18	-1	9	-1	-1	37	10
1	-1	-1	9	30	42	-1	27	48	-1	19	-1	-1	-1	-1	-1	-1	20	-1	-1	44	-1	14	31	-1	-1	-1	-1	-1	17	26	-1	-1	4	-1	11	43	-1	-1	-1	-1	-1	-1	-1	47	-1	35	41	-1
5	8	39	-1	48	10	-1	7	-1	9	-1	46	-1	-1	-1	38	-1	-1	11	14	2	-1	40	32	-1	43	-1	-1	-1	-1	-1	49	-1	-1	15	12	-1	-1	-1	16	-1	-1	-1	20	30	33	-1	1	45
7	25	-1	26	-1	27	34	-1	-1	-1	28	-1	1	-1	35	-1	-1	-1	-1	-1	-1	38	-1	-1	5	-1	13	21	-1	-1	2	24	-1	19	-1	29	-1	-1	-1	-1	40	14	16	3	-1	48	15	44	-1
-1	15	-1	20	36	-1	37	29	-1	34	-1	14	4	-1	-1	27	-1	-1	-1	-1	-1	-1	48	24	41	44	19	-1	-1	40	-1	-1	-1	-1	-1	-1	-1	-1	-1	-1	8	-1	11	6	-1	-1	46	-1	31
-1	-1	14	24	9	2	8	-1	15	-1	21	-1	32	-1	-1	17	-1	-1	30	45	-1	36	-1	-1	-1	-1	38	-1	31	43	-1	-1	35	27	34	-1	-1	-1	11	37	-1	5	33	25	46	16	-1	-1	20
3	12	36	-1	-1	38	-1	-1	6	-1	-1	1	-1	27	42	35	47	-1	-1	-1	13	5	41	-1	14	20	43	-1	17	23	-1	15	-1	18	21	-1	44	-1	-1	24	-1	-1	-1	-1	-1	9	-1	7	-1
-1	22	-1	6	1	-1	-1	39	-1	48	-1	-1	11	-1	44	43	-1	26	-1	-1	34	-1	32	-1	-1	-1	-1	-1	-1	-1	-1	-1	-1	3	40	15	29	-1	-1	-1	-1	-1	-1	-1	-1	-1	-1	-1	-1
-1	-1	19	41	-1	20	-1	5	-1	-1	-1	28	2	-1	-1	-1	-1	15	12	1	7	21	-1	11	-1	27	25	-1	-1	-1	32	-1	-1	45	-1	14	3	49	-1	-1	42	18	-1	-1	-1	-1	-1	-1	26
37	-1	44	-1	40	11	25	-1	43	-1	-1	-1	-1	14	20	-1	-1	38	-1	-1	-1	-1	23	-1	17	-1	-1	33	-1	26	-1	41	-1	-1	-1	22	-1	35	46	-1	30	7	-1	-1	-1	18	-1	31	-1
-1	-1	-1	7	-1	18	35	-1	-1	-1	-1	30	-1	44	40	-1	4	27	-1	3	-1	-1	46	49	-1	-1	-1	-1	-1	-1	-1	-1	-1	42	14	19	-1	-1	36	43	2	47	12	-1	32	41	13	-1	-1
23	-1	-1	16	-1	-1	-1	-1	-1	26	7	42	13	-1	22	-1	-1	-1	41	-1	36	-1	-1	18	-1	-1	-1	44	-1	-1	49	-1	-1	12	-1	-1	40	17	-1	39	32	-1	1	30	-1	-1	-1	3	21
-1	-1	-1	18	-1	-1	-1	47	34	13	42	-1	-1	-1	-1	4	-1	12	-1	41	-1	8	-1	-1	-1	40	-1	-1	-1	19	-1	-1	-1	-1	27	-1	-1	29	-1	-1	46	-1	-1	2	11	-1	36	-1	37
17	-1	45	46	-1	-1	-1	33	-1	49	48	16	-1	-1	-1	-1	-1	-1	8	-1	-1	4	-1	-1	13	25	-1	-1	36	28	-1	-1	-1	6	23	-1	-1	2	-1	-1	3	-1	-1	-1	-1	-1	-1	34	-1
-1	40	-1	39	-1	48	24	37	-1	2	-1	-1	-1	-1	34	7	33	-1	1	28	35	-1	-1	-1	-1	-1	10	-1	26	9	13	43	38	-1	-1	-1	-1	21	-1	36	-1	-1	23	-1	-1	45	-1	-1	-1
-1	1	29	36	-1	-1	-1	26	11	-1	-1	-1	-1	-1	15	-1	25	-1	-1	16	43	-1	-1	-1	-1	-1	24	42	-1	32	-1	-1	-1	31	-1	-1	-1	-1	-1	-1	-1	30	-1	-1	4	-1	-1	-1	8
-1	-1	-1	-1	-1	25	9	-1	-1	-1	-1	-1	31	-1	38	-1	-1	-1	-1	-1	5	-1	-1	-1	-1	45	-1	17	-1	-1	4	18	-1	24	41	-1	12	-1	-1	-1	7	-1	20	-1	-1	-1	22	-1	-1
10	3	42	27	-1	49	-1	-1	19	-1	32	-1	-1	-1	-1	-1	-1	47	44	17	6	-1	-1	43	-1	26	-1	36	45	12	-1	25	-1	-1	-1	-1	33	11	-1	-1	13	-1	9	-1	16	28	31	-1	24
-1	-1	-1	38	14	-1	7	6	36	44	-1	5	-1	-1	45	22	23	32	-1	10	37	11	-1	-1	-1	-1	-1	-1	40	2	-1	-1	-1	46	-1	43	27	19	-1	-1	-1	20	17	12	-1	-1	-1	29	30
-1	49	-1	-1	20	29	12	-1	-1	-1	-1	-1	-1	-1	-1	2	16	-1	40	37	-1	27	34	41	-1	-1	5	-1	48	15	-1	1	-1	39	-1	-1	47	6	-1	-1	-1	-1	36	-1	-1	30	18	-1	42
-1	-1	-1	45	7	16	-1	-1	-1	-1	-1	-1	15	-1	3	-1	-1	-1	21	-1	23	-1	17	42	-1	10	36	25	-1	49	-1	33	-1	-1	-1	-1	-1	-1	14	18	31	-1	-1	-1	29	43	-1	28	2
-1	-1	24	14	47	-1	-1	-1	-1	17	-1	-1	6	-1	-1	-1	-1	-1	-1	-1	-1	13	-1	-1	-1	-1	-1	-1	-1	20	29	-1	16	-1	-1	48	-1	44	-1	-1	43	-1	-1	4	19	-1	-1	-1	-1
-1	-1	27	-1	23	44	3	-1	-1	-1	-1	-1	49	25	-1	-1	-1	7	20	-1	9	-1	1	37	-1	-1	-1	26	-1	14	-1	-1	-1	43	-1	-1	-1	41	-1	-1	29	-1	-1	46	-1	-1	-1	-1	13
-1	-1	6	-1	-1	1	11	-1	-1	-1	29	-1	-1	35	19	-1	-1	42	-1	-1	-1	-1	-1	33	-1	3	-1	-1	-1	-1	-1	-1	-1	-1	2	-1	-1	-1	20	28	-1	-1	10	32	-1	5	-1	-1	-1
42	33	-1	-1	10	-1	-1	-1	-1	-1	14	-1	34	-1	41	18	-1	-1	36	31	-1	20	-1	-1	-1	29	-1	35	-1	-1	37	-1	-1	-1	-1	9	-1	-1	45	3	5	-1	38	-1	24	-1	-1	-1	-1
-1	-1	-1	25	-1	9	-1	18	-1	-1	-1	-1	-1	19	1	-1	-1	-1	-1	-1	-1	44	24	-1	11	12	48	-1	-1	22	-1	3	45	36	-1	-1	34	-1	-1	15	-1	-1	47	-1	-1	27	41	-1	-1
-1	-1	4	19	25	-1	47	42	37	-1	26	36	48	-1	-1	-1	40	-1	45	-1	29	43	-1	-1	-1	-1	-1	-1	7	-1	-1	-1	13	9	-1	-1	-1	18	-1	-1	-1	-1	-1	28	-1	-1	-1	-1	1
49	26	12	5	-1	-1	29	-1	-1	-1	8	43	-1	-1	21	-1	24	9	-1	44	-1	32	-1	25	-1	-1	22	6	-1	-1	19	45	-1	-1	-1	34	-1	-1	-1	-1	-1	48	46	27	10	-1	7	-1	-1
28	-1	-1	-1	-1	7	-1	35	46	-1	31	-1	45	-1	43	-1	-1	36	-1	-1	47	34	13	14	18	-1	-1	27	-1	-1	-1	-1	-1	-1	-1	-1	-1	32	-1	21	-1	-1	-1	-1	-1	-1	-1	-1	-1
-1	38	-1	22	-1	43	-1	-1	-1	24	44	41	12	34	33	-1	-1	48	-1	-1	25	-1	-1	-1	-1	-1	-1	10	-1	3	8	-1	27	5	-1	-1	-1	15	19	29	-1	-1	-1	-1	-1	-1	-1	-1	17
-1	-1	-1	30	-1	8	-1	-1	-1	23	-1	40	18	-1	6	-1	-1	-1	-1	22	15	-1	11	4	1	-1	9	-1	2	-1	-1	32	-1	-1	-1	-1	-1	-1	-1	-1	-1	44	-1	-1	31	29	-1	-1	-1
-1	9	-1	-1	-1	14	-1	-1	-1	-1	2	32	21	-1	-1	19	11	16	-1	-1	17	45	38	-1	46	-1	-1	8	-1	-1	15	-1	49	-1	1	3	5	-1	-1	30	-1	-1	-1	-1	22	-1	-1	-1	-1
11	-1	-1	-1	16	-1	-1	3	17	-1	15	-1	-1	-1	-1	-1	10	-1	-1	13	30	29	-1	-1	-1	-1	-1	-1	12	18	-1	-1	34	-1	-1	-1	-1	-1	-1	7	4	39	14	-1	21	-1	32	42	-1
-1	11	-1	-1	31	-1	21	14	24	-1	-1	-1	36	-1	-1	-1	29	-1	-1	-1	38	-1	-1	-1	-1	-1	-1	-1	-1	-1	-1	-1	-1	-1	18	47	23	-1	-1	44	10	43	-1	-1	-1	22	-1	-1	-1
-1	-1	-1	1	-1	-1	-1	-1	-1	-1	-1	21	44	-1	-1	16	-1	-1	-1	5	-1	-1	15	45	-1	-1	-1	28	42	7	-1	-1	-1	-1	11	4	-1	-1	-1	41	6	-1	-1	-1	43	14	3	25	-1
-1	16	-1	-1	-1	-1	-1	38	1	35	-1	20	-1	-1	-1	-1	44	-1	10	23	41	-1	-1	36	-1	-1	-1	-1	-1	21	-1	-1	8	37	39	-1	25	-1	-1	42	-1	-1	-1	-1	-1	-1	-1	6	-1
45	-1	23	-1	33	-1	48	-1	41	-1	-1	-1	-1	3	-1	-1	9	-1	17	-1	49	-1	-1	-1	-1	-1	-1	-1	29	-1	-1	20	47	-1	-1	-1	-1	22	1	35	15	-1	42	-1	36	-1	-1	24	-1
-1	-1	-1	-1	-1	6	-1	-1	-1	-1	39	-1	-1	-1	-1	-1	-1	19	14	11	18	-1	25	34	-1	-1	-1	7	-1	-1	3	4	-1	1	43	-1	-1	40	30	-1	-1	-1	15	17	-1	20	-1	-1	46
-1	-1	-1	-1	13	37	-1	-1	22	-1	34	19	23	11	-1	-1	45	28	-1	-1	4	-1	20	26	-1	31	1	-1	49	6	-1	-1	-1	-1	-1	5	-1	39	-1	-1	36	29	27	16	8	12	-1	-1	9
-1	29	30	-1	19	-1	-1	-1	-1	15	-1	-1	-1	-1	36	-1	43	-1	-1	-1	-1	-1	9	-1	37	-1	6	-1	-1	41	17	-1	24	-1	-1	-1	-1	-1	-1	-1	-1	-1	40	-1	38	-1	2	-1	44
49 
34 46 43 47
11 43 32 1
12 27 3 11
24 9 41 30
35 3 4 45
12 7 41 10
45 36 33 9
18 25 21 36
18 28 38 41
11 29 25 14
6 12 34 32
24 22 34 8
43 44 46 11
26 38 35 18
38 44 28 26
33 13 10 29
29 15 38 35
17 9 45 45
30 25 44 26
24 13 27 17
34 24 31 29
22 28 23 40
12 41 31 42
20 30 19 44
6 46 14 31
31 1 29 45
45 23 34 21
25 36 17 17
38 14 27 12
43 22 48 47
6 36 7 25
36 1 5 26
32 16 37 48
40 49 9 16
17 22 40 19
47 1 37 6
20 11 7 27
1 32 3 25
25 29 28 47
15 28 23 21
48 22 23 28
49 14 31 39
9 29 22 48
41 7 25 32
14 36 21 6
36 36 40 17
18 29 33 16
15 17 9 21
14 40 1 23
